p cnf 53 57
-1 26 53 0 
-2 53 0 
-3 27 -4 53 0 
-5 24 53 0 
-6 29 53 0 
-7 25 33 53 0 
-8 53 0 
-9 39 41 53 0 
-10 32 53 0 
-11 53 0 
-12 53 0 
-4 53 0 
-13 18 53 0 
-14 37 53 0 
-15 53 0 
-16 53 0 
-17 38 53 0 
-18 13 53 0 
-19 53 0 
-20 53 0 
-21 53 0 
-22 -21 53 0 
-23 -21 53 0 
-14 37 -21 53 0 
-24 5 -25 7 33 -4 53 0 
-26 1 -27 3 -4 53 0 
-28 53 0 
-28 -4 53 0 
-23 53 0 
-29 6 53 0 
-22 53 0 
-30 53 0 
-31 47 53 0 
-32 10 53 0 
-29 6 -33 7 25 53 0 
-34 42 45 53 0 
-35 53 0 
-36 53 0 
-37 14 53 0 
-3 27 53 0 
-38 17 53 0 
-39 9 41 53 0 
-40 53 0 
-41 9 39 53 0 
-27 3 -41 9 39 53 0 
-6 29 -42 34 45 53 0 
-1 26 -43 48 49 50 51 53 0 
-44 53 0 
-45 34 42 53 0 
-46 53 0 
-47 31 53 0 
-48 43 49 50 51 53 0 
-49 43 48 50 51 53 0 
-50 43 48 49 51 53 0 
-51 43 48 49 50 53 0 
-27 3 53 0 
-52 53 0 
